c A SAT instance generated from a 3-CNF formula that had 25 clauses and 5 variables
p cnf 5 25
-1 -5 -2 0
-1 -5 3 0
1 -3 -2 0
-2 3 4 0
3 2 5 0
3 4 -2 0
5 1 4 0
-5 4 2 0
5 -3 -1 0
-2 -3 -1 0
-2 3 5 0
-3 4 2 0
-3 1 -2 0
-1 4 -2 0
3 -1 2 0
3 2 -1 0
1 4 -2 0
4 3 -2 0
3 1 5 0
2 5 1 0
-2 5 3 0
-5 -4 1 0
1 -5 2 0
-2 -4 1 0
-4 2 5 0
